%chk=E:\YangJ\Amiano\Asp\ts1\s\Asp-S-opt-freq-ts1-6-31g.chk
# opt=(calcfc,ts) freq rb3lyp/6-31g  iop(1/11=1)

Asp-S-opt-freq-ts1-6-31g

0 1
 N                  0.10074125   -0.02446144   -0.01666168
 H                  0.10074125   -0.02446144    0.99961350
 C                  1.46278739   -0.02446144   -0.52761615
 H                  1.42770261   -0.19178777   -1.60872814
 C                  2.11805131    1.35440021   -0.30762457
 C                  2.33244722   -1.14005577    0.06660714
 H                  1.32698923    2.10155003   -0.42687776
 H                  2.52028140    1.46808342    0.70105697
 C                  3.18229147    1.69078333   -1.32895246
 O                  1.95952698   -1.95621815    0.87083069
 O                  3.17291848    1.35452249   -2.48536215
 H                 -0.37956197   -0.87372786   -0.29525540
 O                  3.59695490   -1.10974580   -0.41409828
 H                  3.29316297   -2.28004431    0.65025951
 O                  4.14553598    2.48458626   -0.80413597
 H                  4.76121913    2.69916485   -1.52169687

 1 2 1.0 3 1.0 12 1.0
 2
 3 4 1.0 5 1.0 6 1.0
 4
 5 7 1.0 8 1.0 9 1.0
 6 10 2.0 13 1.0
 7
 8
 9 11 2.0 15 1.0
 10
 11
 12
 13
 14
 15 16 1.0
 16

 1 2 1.0 3 1.0 12 1.0
 2
 3 4 1.0 5 1.0 6 1.0
 4
 5 7 1.0 8 1.0 9 1.0
 6 10 2.0 13 1.0
 7
 8
 9 11 2.0 15 1.0
 10
 11
 12
 13
 14
 15 16 1.0
 16

 1 2 1.0 3 1.0 12 1.0
 2
 3 4 1.0 5 1.0 6 1.0
 4
 5 7 1.0 8 1.0 9 1.0
 6 10 2.0 13 1.0
 7
 8
 9 11 2.0 15 1.0
 10
 11
 12
 13
 14
 15 16 1.0
 16

 1 2 1.0 3 1.0 12 1.0
 2
 3 4 1.0 5 1.0 6 1.0
 4
 5 7 1.0 8 1.0 9 1.0
 6 10 2.0 13 1.0
 7
 8
 9 11 2.0 15 1.0
 10
 11
 12
 13
 14
 15 16 1.0
 16







