%chk=E:\YangJ\Amiano\ser\ts1\r\Ser-R-opt-freq-ts1-6-31g.chk
# opt=(calcfc,ts) freq b3lyp/6-31g geom=connectivity iop(1/11=1)

Ser-R-opt-freq-ts1-6-31g

0 1
 C                  0.00000000    0.00000000    0.00000000
 H                  0.00000000    0.00000000    1.10493804
 C                  1.46498507    0.00000000   -0.40796562
 O                  2.08800522    0.94864079   -0.81242954
 O                  2.02814035   -1.21734808   -0.22039779
 H                  3.12356877   -0.25643213   -0.76568390
 C                 -0.68255659    1.28433645   -0.45261090
 H                 -0.12842167    2.15123174   -0.08193887
 H                 -0.70574612    1.31471791   -1.54721214
 O                 -2.00718065    1.24567108    0.08867478
 H                 -2.51695344    1.97198957   -0.28066860
 N                 -0.68919302   -1.15684609   -0.57346880
 H                 -0.29209593   -2.02456822   -0.23121317
 H                 -1.66698193   -1.12064027   -0.30419306

 1 2 1.0 3 1.0 7 1.0 12 1.0
 2
 3 4 2.0 5 1.0
 4
 5
 6
 7 8 1.0 9 1.0 10 1.0
 8
 9
 10 11 1.0
 11
 12 13 1.0 14 1.0
 13
 14

