%chk=Ala-S-opt-freq-tsb1-6-31g.chk
#p opt=(calcfc,ts) freq rb3lyp/6-31g iop(1/11=1)

Ala-S-opt-freq-tsb1-6-31g

0 1
 N                 -1.24867766   -1.16640890   -0.42451765
 H                 -1.02593266   -1.73875390    0.38424635
 C                 -0.48755966    0.07767110   -0.39213365
 H                  0.17564908   -1.15816008   -0.90743800
 C                 -1.03147266    1.15976910    0.56890335
 C                  0.94156134   -0.24895990    0.00729335
 H                 -1.04135166    0.79017210    1.59795535
 H                 -0.43081466    2.07195810    0.52576735
 H                 -2.05605566    1.41526010    0.28593035
 O                  1.27408234   -1.17866490    0.69858035
 H                 -2.24566066   -0.98333290   -0.42777065
 O                  1.82031534    0.66653710   -0.46289365
 H                  2.69646534    0.42384910   -0.12654965

