%chk=Ala-S-opt-freq-tsb1-6-31g.chk
# opt=(calcfc,ts) freq rb3lyp/6-31g iop(1/11=1)

Ala-S-opt-freq-tsb16-31g

0 1
 N                 -1.47991268   -1.20198019   -0.42556978
 H                 -1.25716768   -1.77432519    0.38319422
 C                 -0.71879468    0.04209981   -0.39318578
 H                  0.30641028   -1.34185066   -0.59728617
 C                 -1.26270768    1.12419781    0.56785122
 C                  0.71032632   -0.28453119    0.00624122
 H                 -1.27258668    0.75460081    1.59690322
 H                 -0.66204968    2.03638681    0.52471522
 H                 -2.28729068    1.37968881    0.28487822
 O                  1.04284732   -1.21423619    0.69752822
 H                 -2.47689568   -1.01890419   -0.42882278
 O                  1.58908032    0.63096581   -0.46394578
 H                  2.46523032    0.38827781   -0.12760178

