%chk=E:\YangJ\Amiano\val\ts1\s\Val-S-opt-freq-ts1-6-31g.chk
# opt=(calcfc,ts) freq rb3lyp/6-31g geom=connectivity iop(1/11=1)

Val-S-opt-freq-ts1-6-31g

0 1
 N                 -0.14396814    0.14922586    0.17438181
 H                 -0.14396814    0.14922586    1.19090223
 C                  1.23350361    0.14922586   -0.32066186
 H                  1.21313646   -0.05735733   -1.39427905
 C                  1.88510923    1.54055474   -0.09744895
 C                  2.06653664   -0.94029796    0.35520070
 C                  3.37584823    1.55757427   -0.46341734
 O                  2.08557284   -1.15501303    1.54308162
 H                  3.52826479    1.28597193   -1.51300327
 H                  3.78594195    2.56012883   -0.31711742
 H                  3.96486175    0.87120388    0.15035262
 H                 -0.63870602   -0.68447310   -0.12542284
 O                  2.79027129   -1.67228630   -0.52644967
 H                  3.06149007   -2.26700885    0.93394217
 H                  1.79420303    1.75428175    0.97541606
 C                  1.11976275    2.61719480   -0.87671926
 H                  0.05561269    2.59278758   -0.64188663
 H                  1.50925036    3.61027249   -0.63560213
 H                  1.23489233    2.46855444   -1.95622757

 1 2 1.0 3 1.0 12 1.0
 2
 3 4 1.0 5 1.0 6 1.0
 4
 5 7 1.0 15 1.0 16 1.0
 6 8 2.0 13 1.0
 7 9 1.0 10 1.0 11 1.0
 8
 9
 10
 11
 12
 13
 14
 15
 16 17 1.0 18 1.0 19 1.0
 17
 18
 19

