%chk=E:\YangJ\Amiano\val\ts1\s\Val-S-ts1-6-31++gdf-cpcm.chk
#p opt=(calcfc,ts) freq rb3lyp/6-311++g(d,p) scrf=cpcm iop(1/11=1)

Val-S-opt-freq-ts1-6-31++gdf

0 1
 N                  0.10424400    1.95625500   -0.05858700
 H                 -0.16534100    2.10537600    0.90956200
 C                  0.04872400    0.53166400   -0.39562000
 H                  0.19079900    0.43108500   -1.47492500
 C                  1.17228500   -0.25343700    0.32962400
 C                 -1.30589300   -0.05451100   -0.07412100
 C                  1.06156900   -1.76540700    0.08957300
 O                 -1.87058600    0.00797200    1.07116500
 H                  1.12884400   -2.00143000   -0.97746600
 H                  1.87750100   -2.28648900    0.59642600
 H                  0.12376200   -2.18113800    0.46706700
 H                 -0.52511800    2.49883800   -0.64059800
 O                 -2.07454800   -0.65258700   -0.89761700
 H                 -2.68075500   -0.61054800    0.25794500
 H                  1.04223700   -0.06600500    1.40316100
 C                  2.54777300    0.27216700   -0.09814800
 H                  2.62420300    1.35003000    0.04554200
 H                  3.33547500   -0.21481200    0.48312200
 H                  2.73301000    0.05537500   -1.15595400

 1 2 1.0 3 1.0 12 1.0
 2
 3 4 1.0 5 1.0 6 1.0
 4
 5 7 1.0 15 1.0 16 1.0
 6 8 2.0 13 2.0
 7 9 1.0 10 1.0 11 1.0
 8
 9
 10
 11
 12
 13
 14
 15
 16 17 1.0 18 1.0 19 1.0
 17
 18
 19

