%chk=Ala-R-opt-freq--ts1-6-31g.chk
# opt=(calcfc,ts) freq rb3lyp/6-31g 

Ala-R-opt-freq-ts1-6-31g

0 1
 C                  0.66545000    0.13696400   -0.39831400
 H                  0.64283300    0.49218400   -1.43312500
 C                 -0.78113900   -0.17245300   -0.00205100
 O                 -1.14527300   -1.13175400    0.63090500
 O                 -1.63920500    0.78381800   -0.43678900
 H                 -1.98939565   -0.25213378    0.33719692
 N                  1.54790400   -1.01753500   -0.32926700
 H                  1.24067500   -1.74720300   -0.96437800
 H                  1.52553400   -1.42019300    0.60337700
 C                  1.20319800    1.27028500    0.49052000
 H                  2.21802800    1.51790300    0.17646300
 H                  0.57730900    2.16124900    0.41941400
 H                  1.23644900    0.95279900    1.53715800

 1 2 1.0 3 1.0 7 1.0 10 1.0
 2
 3 4 2.0 5 1.0
 4
 5
 6
 7 8 1.0 9 1.0
 8
 9
 10 11 1.0 12 1.0 13 1.0
 11
 12
 13

