%chk=Ala-S-opt-freq-tsa3-6-31g.chk
#p opt=(calcfc,ts) freq rb3lyp/6-31g iop(1/11=1)

Ala-S-opt-freq-tsa3-6-31g

0 1
 N                  1.23781587    1.40393123    0.02051328
 H                  2.23504587    1.47985723   -0.06195072
 C                  0.61987487    0.15551123   -0.00472072
 H                  0.07592022   -1.17184519    0.68265836
 C                  1.52790087   -1.04257277   -0.01240072
 C                 -0.72116713    0.04901323   -0.01119772
 H                  2.17341787   -1.04548477    0.87625528
 H                  0.94663387   -1.96508077   -0.01538072
 H                  2.18312587   -1.03552277   -0.89492972
 O                 -1.53044813    1.20022023   -0.10249972
 H                  0.67546787    2.23171523   -0.07620872
 O                 -1.41141513   -1.16651777    0.09290828
 H                 -2.14347613    1.24836923    0.66243928

 1 2 1.0 3 1.0 11 1.0
 2
 3 5 1.0 6 2.0
 4
 5 7 1.0 8 1.0 9 1.0
 6 10 1.0 12 1.0
 7
 8
 9
 10 13 1.0
 11
 12
 13

 1 2 1.0 3 1.0 11 1.0
 2
 3 5 1.0 6 2.0
 4
 5 7 1.0 8 1.0 9 1.0
 6 10 1.0 12 1.0
 7
 8
 9
 10 13 1.0
 11
 12
 13

 1 2 1.0 3 1.0 11 1.0
 2
 3 5 1.0 6 2.0
 4
 5 7 1.0 8 1.0 9 1.0
 6 10 1.0 12 1.0
 7
 8
 9
 10 13 1.0
 11
 12
 13

 1 2 1.0 3 1.0 11 1.0
 2
 3 5 1.0 6 2.0
 4
 5 7 1.0 8 1.0 9 1.0
 6 10 1.0 12 1.0
 7
 8
 9
 10 13 1.0
 11
 12
 13









