%chk=Ala-S-opt-freq-tsa3-6-31g.chk
#p opt=(calcfc,ts) freq rb3lyp/6-31g geom=connectivity iop(1/11=1)

Ala-S-opt-freq-tsa3-6-31g

0 1
 N                  1.28271073    1.35771537    0.00366167
 H                  2.27994073    1.43364137   -0.07880233
 C                  0.66476973    0.10929537   -0.02157233
 H                 -2.06276522   -1.38505895   -0.72794325
 C                  1.57279573   -1.08878863   -0.02925233
 C                 -0.83050522   -0.00945095   -0.02879425
 H                  2.21831273   -1.09170063    0.85940367
 H                  0.99152873   -2.01129663   -0.03223233
 H                  2.22802073   -1.08173863   -0.91178133
 O                 -1.63978622    1.14175605   -0.12009625
 H                  0.72036273    2.18549937   -0.09306033
 O                 -1.52075322   -1.22498195    0.07531175
 H                 -0.01343629    1.03664320   -0.01853405

 1 2 1.0 3 1.0 11 1.0
 2
 3 5 1.0 6 1.0
 4 12 1.0
 5 7 1.0 8 1.0 9 1.0
 6 10 1.0 12 1.0
 7
 8
 9
 10
 11
 12
 13

 1 2 1.0 3 1.0 11 1.0
 2
 3 5 1.0 6 1.0
 4 12 1.0
 5 7 1.0 8 1.0 9 1.0
 6 10 1.0 12 1.0
 7
 8
 9
 10
 11
 12
 13

 1 2 1.0 3 1.0 11 1.0
 2
 3 5 1.0 6 1.0
 4 12 1.0
 5 7 1.0 8 1.0 9 1.0
 6 10 1.0 12 1.0
 7
 8
 9
 10
 11
 12
 13

 1 2 1.0 3 1.0 11 1.0
 2
 3 5 1.0 6 1.0
 4 12 1.0
 5 7 1.0 8 1.0 9 1.0
 6 10 1.0 12 1.0
 7
 8
 9
 10
 11
 12
 13







