%chk=Ala-S-opt-freq-cpcm-w-pb1-6-311++gdp.chk
#p freq rb3lyp/6-311++g(d,p) scrf=check guess=tcheck
geom=(connectivity,allcheck) genchk

Ala-S-opt-freq-cpcm-w-pb2-6-311++gdp

0 1
 N                  1.21817500   -1.19358000   -0.54017500
 H                  2.18037500   -1.11795700   -0.85749500
 C                  0.64245300    0.15186700   -0.42730100
 H                  0.69709500    0.62006500   -1.41189200
 C                  1.33550300    1.07516500    0.59708100
 C                 -0.84032900    0.07303200   -0.09765000
 H                  2.38530800    1.19472900    0.31953900
 H                  0.87226700    2.06519000    0.61876300
 H                  1.28959700    0.64446700    1.60077400
 O                 -1.68647700    0.81070700   -0.55226100
 H                  1.24610600   -1.64335700    0.37097000
 O                 -1.11983400   -0.88216800    0.80909700
 H                 -2.07037400   -0.85603600    1.00360700

 1 2 1.0 3 1.0 11 1.0
 2
 3 4 1.0 5 1.0 6 1.0
 4
 5 7 1.0 8 1.0 9 1.0
 6 10 2.0 12 1.0
 7
 8
 9
 10
 11
 12 13 1.0
 13

