%chk=E:\YangJ\Amiano\Ala\ts1\s\Ala-S-opt-freq-ts1-6-311++gdp.chk
# opt=(calcfc,ts) freq rb3lyp/6-311++g(d,p) iop(1/11=1) 

Ala-S-opt-freq-ts1-6-311++gdp

0 1
 N                 -1.35635700   -1.18713800   -0.31101900
 H                 -1.04889100   -1.77568400    0.45070400
 C                 -0.72139400    0.11448000   -0.41447200
 H                 -0.79520200    0.47285300   -1.44899100
 C                 -1.30792500    1.21955000    0.51464700
 C                  0.73474500   -0.02873200   -0.11154100
 H                 -1.21859500    0.91972200    1.56418700
 H                 -0.79507900    2.17616100    0.37044800
 H                 -2.36934900    1.35233300    0.28075400
 O                  1.26999400   -0.96955100    0.62146900
 H                 -2.34321000   -1.22418500   -0.51752700
 O                  1.67297700    0.80746200   -0.46372900
 H                  2.28850100   -0.14631000    0.28382300

