%chk=E:\YangJ\Amiano\ser\ts1\s\Ser-S-opt-freq-ts1-6-31g.chk
# opt=(calcfc,ts) freq rb3lyp/6-31g iop(1/11=1)

Ser-S-opt-freq-ts1-6-31g

0 1
 N                  0.00000000    0.00000000    0.00000000
 H                  0.00000000    0.00000000    1.01608902
 C                  1.37124942    0.00000000   -0.50806977
 H                  1.35530111   -0.23755059   -1.57287879
 C                  1.96170989    1.39904787   -0.32500440
 C                  2.25647267   -1.02023475    0.21213208
 H                  1.32343885    2.10907457   -0.86107145
 H                  1.95463661    1.65064040    0.74292367
 O                  3.29032995    1.38707209   -0.84189412
 O                  2.39728757   -1.06437687    1.41046953
 H                  3.73452423    2.20082491   -0.58840208
 H                 -0.50522618   -0.82328821   -0.30806740
 O                  2.83739828   -1.90057910   -0.62926216
 H                  3.03381901   -2.42851782    0.86830057

 1 2 1.0 3 1.0 12 1.0
 2
 3 4 1.0 5 1.0 6 1.0
 4
 5 7 1.0 8 1.0 9 1.0
 6 10 2.0 13 1.0
 7
 8
 9 11 1.0
 10
 11
 12
 13
 14

 1 2 1.0 3 1.0 12 1.0
 2
 3 4 1.0 5 1.0 6 1.0
 4
 5 7 1.0 8 1.0 9 1.0
 6 10 2.0 13 1.0
 7
 8
 9 11 1.0
 10
 11
 12
 13
 14



