%chk=E:\YangJ\Amiano\ser\ts1\s\Ser-S-opt-freq-ts1-6-311++gdp-cpcm.chk
# freq rb3lyp/6-311++g(d,p) scrf=check guess=tcheck
geom=(connectivity,allcheck) genchk test

Ser-S-opt-freq-ts1-6-311++gdp

0 1
 N                  0.11245800    2.01035600    0.00222100
 H                 -0.15734800    2.07549100    0.97890100
 C                  0.29259700    0.61681300   -0.40760400
 H                  0.39719400    0.58252800   -1.49314100
 C                  1.56349600    0.05587100    0.22750400
 C                 -0.90399000   -0.23114900   -0.03800300
 H                  2.39922800    0.70088500   -0.06352100
 H                  1.46231700    0.07489500    1.31935700
 O                  1.72911000   -1.27412200   -0.25375700
 O                 -1.23604100   -0.52461900    1.16053400
 H                  2.36304700   -1.73780500    0.30005600
 H                 -0.59938600    2.47145700   -0.55300000
 O                 -1.77095600   -0.68565400   -0.85112300
 H                 -2.14178300   -1.01399000    0.35919200

 1 2 1.0 3 1.0 12 1.0
 2
 3 4 1.0 5 1.0 6 1.0
 4
 5 7 1.0 8 1.0 9 1.0
 6 10 2.0 13 2.0
 7
 8
 9 11 1.0
 10
 11
 12
 13
 14

