%chk=E:\YangJ\Amiano\Phe\opt-rs\r\Phe-R-opt-freq-6-311gdp.chk
# opt freq rb3lyp/6-311++g(d,p) 

Phe-R-opt-freq--6-311++gdp

0 1
 C                  1.37087300   -0.12147100    0.44953000
 H                  1.03164900    0.51078500    1.27215900
 C                  2.77721000    0.37225500    0.10945600
 O                  3.24652300    1.43195700    0.44124300
 O                  3.46330900   -0.52015000   -0.65278300
 H                  4.32815600   -0.12873000   -0.84748200
 C                  0.44619100    0.13073400   -0.77352100
 H                  0.69704800    1.10525200   -1.20285700
 H                  0.67550200   -0.62137400   -1.53494800
 C                 -1.02456600    0.10479200   -0.42533700
 C                 -1.74216000   -1.09527300   -0.38095800
 C                 -1.69683800    1.29503000   -0.12491800
 C                 -3.09418900   -1.10514100   -0.04419000
 H                 -1.23514600   -2.02682600   -0.60261800
 C                 -3.04880900    1.28907100    0.21375500
 H                 -1.15817500    2.23716800   -0.16122000
 C                 -3.75229100    0.08675900    0.25534900
 H                 -3.63420300   -2.04521900   -0.01573700
 H                 -3.55216800    2.22276600    0.43941200
 H                 -4.80487400    0.07903700    0.51545000
 N                  1.29523600   -1.51438300    0.87750100
 H                  1.77687700   -2.12199800    0.22253800
 H                  1.71750100   -1.64518100    1.79012100

 1 2 1.0 3 1.0 7 1.0 21 1.0
 2
 3 4 2.0 5 1.0
 4
 5 6 1.0
 6
 7 8 1.0 9 1.0 10 1.0
 8
 9
 10 11 1.5 12 1.5
 11 13 1.5 14 1.0
 12 15 1.5 16 1.0
 13 17 1.5 18 1.0
 14
 15 17 1.5 19 1.0
 16
 17 20 1.0
 18
 19
 20
 21 22 1.0 23 1.0
 22
 23

