%chk=E:\YangJ\Amiano\val\ts1\s\ts1-p\Val-S-ts1-p-6-31++gdf-cpcm.chk
# opt freq rb3lyp/6-311++g(d,p) scrf=(cpcm,solvent=water) geom=connectivity

Title Card Required

0 1
 N                  0.10079100    1.96282500   -0.07333700
 H                 -0.13658300    2.10876000    0.90407100
 C                  0.06017600    0.53717400   -0.40850300
 H                  0.22321400    0.43590900   -1.48434200
 C                  1.16752100   -0.25192400    0.33920200
 C                 -1.29813400   -0.05680200   -0.11666700
 C                  1.06521300   -1.76216500    0.08253900
 O                 -1.90099000    0.00342600    1.01031600
 H                  1.16372700   -1.98679200   -0.98449100
 H                  1.86749000   -2.28506500    0.60843800
 H                  0.11835600   -2.18320500    0.43141600
 H                 -0.56808800    2.48687700   -0.62905800
 O                 -2.03943100   -0.67413000   -0.95518600
 H                 -2.88726700   -0.49292400    1.19818000
 H                  1.01516100   -0.07357100    1.41110200
 C                  2.55477200    0.27199800   -0.05144100
 H                  2.64914900    1.34119100    0.13916300
 H                  3.32564100   -0.24996400    0.52166300
 H                  2.74973900    0.09496100   -1.11460200

 1 2 1.0 3 1.0 12 1.0
 2
 3 4 1.0 5 1.0 6 1.0
 4
 5 7 1.0 15 1.0 16 1.0
 6 8 2.0 13 2.0
 7 9 1.0 10 1.0 11 1.0
 8
 9
 10
 11
 12
 13
 14
 15
 16 17 1.0 18 1.0 19 1.0
 17
 18
 19

