%chk=Ala-S-opt-freq-tsa3-6-31g.chk
#p opt=(calcfc,ts) freq rb3lyp/6-31g  iop(1/11=1)

Ala-S-opt-freq-tsa3-6-31g

0 1
 N                  1.09469794    1.25927688    0.13501086
 H                  2.09192794    1.33520288    0.05254686
 C                  0.47675694    0.01085688    0.10977686
 H                 -2.09654506   -1.47124912   -0.59584914
 C                  1.38478294   -1.18722712    0.10209686
 C                 -0.86428506   -0.09564112    0.10329986
 H                  2.03029994   -1.19013912    0.99075286
 H                  0.80351594   -2.10973512    0.09911686
 H                  2.04000794   -1.18017712   -0.78043214
 O                 -1.64104140    1.11937827   -0.02280786
 H                  0.53234994    2.08706088    0.03828886
 O                 -1.55453306   -1.31117212    0.20740586
 H                 -0.26567103    0.70705027    0.07448680

 1 2 1.0 3 1.0 11 1.0
 2
 3 5 1.0 6 2.0
 4 12 1.0
 5 7 1.0 8 1.0 9 1.0
 6 10 1.0 12 1.0
 7
 8
 9
 10
 11
 12
 13

 1 2 1.0 3 1.0 11 1.0
 2
 3 5 1.0 6 2.0
 4 12 1.0
 5 7 1.0 8 1.0 9 1.0
 6 10 1.0 12 1.0
 7
 8
 9
 10
 11
 12
 13





