%chk=Ser-S-opt-freq-cpcm-w-6-311++gdp.chk
#p opt freq rb3lyp/6-311++g(d,p) scrf=(cpcm,solvent=water) nosymm

Ser-S-opt-freq-cpcm-w-6-311++gdp

0 1
 N                  0.14731400    2.00889200   -0.21051800
 H                 -0.12755200    2.18299500    0.75206900
 C                  0.25818300    0.57142500   -0.45517400
 H                  0.31789000    0.39795000   -1.53074100
 C                  1.54383300    0.06094100    0.19751400
 C                 -0.93579200   -0.20584600    0.10470400
 H                  2.38463000    0.61777500   -0.22897400
 H                  1.49724400    0.25802000    1.27585000
 O                  1.64638700   -1.33639500   -0.06608500
 O                 -1.30517500   -0.14044100    1.25234000
 H                  2.35246100   -1.70735000    0.47021000
 H                 -0.55199200    2.43033000   -0.81162000
 O                 -1.56679000   -0.94705400   -0.82957500
 H                 -2.29660300   -1.40996700   -0.38887500

 1 2 1.0 3 1.0 12 1.0
 2
 3 4 1.0 5 1.0 6 1.0
 4
 5 7 1.0 8 1.0 9 1.0
 6 10 2.0 13 1.0
 7
 8
 9 11 1.0
 10
 11
 12
 13 14 1.0
 14

