%chk=Val-S-opt-freq-cpcm-w-pa3-6-311++gdp.chk
#p freq rb3lyp/6-311++g(d,p) scrf=check guess=tcheck
geom=(connectivity,allcheck) genchk

Val-S-opt-freq-cpcm-w-pa3-6-311++gdp

0 1
 N                 -0.32883300    1.77378100    1.11328900
 H                  0.06733400    1.84989900    2.04521200
 C                 -0.35929000    0.36634400    0.71645400
 H                 -1.39055700   -1.64296100   -0.16134500
 C                  1.10183700   -0.16706300    0.56368700
 C                 -1.17009600    0.22984300   -0.57237900
 C                  1.18878700   -1.69882200    0.52731300
 O                 -1.43637800    1.13349000   -1.32555400
 H                  0.80592400   -2.11297500   -0.41067900
 H                  2.23283300   -2.01182200    0.60632600
 H                  0.64551400   -2.15733600    1.35946600
 H                 -1.26876800    2.15497100    1.15951600
 O                 -1.60998400   -1.01676100   -0.86522400
 H                 -0.85591000   -0.26934000    1.46623400
 H                  1.59261400    0.15994900    1.48807600
 C                  1.84885300    0.46566900   -0.61626100
 H                  1.77949000    1.55423800   -0.59079700
 H                  2.90596200    0.18956500   -0.58236500
 H                  1.44875100    0.11857600   -1.57454100

 1 2 1.0 3 1.0 12 1.0
 2
 3 5 1.0 6 1.0 14 1.0
 4 13 1.0
 5 7 1.0 15 1.0 16 1.0
 6 8 2.0 13 1.0
 7 9 1.0 10 1.0 11 1.0
 8
 9
 10
 11
 12
 13
 14
 15
 16 17 1.0 18 1.0 19 1.0
 17
 18
 19

