%chk=E:\YangJ\Amiano\Val\opt-rs\r\Val-R-opt-6-311gdp.chk
# opt freq b3lyp/6-311++g(d,p) geom=connectivity

Val-R-opt-freq-6-311++g(d,p)

0 1
 C                 -0.05762600    0.45890600    0.28742700
 H                 -0.00468800    0.46278100    1.39043300
 C                 -1.33429300   -0.30133700   -0.07237600
 O                 -1.43406500   -1.26725400   -0.78149100
 O                 -2.41438900    0.27600800    0.52081600
 H                 -3.19831100   -0.21475000    0.23114700
 C                  1.20334600   -0.24419800   -0.25256000
 C                  2.44451400    0.65162500   -0.12575500
 H                  2.62012700    0.94806700    0.91534400
 H                  3.33229200    0.11025000   -0.46260400
 H                  2.36730300    1.55362700   -0.73690800
 N                 -0.22130000    1.81506400   -0.26609000
 H                 -1.07595900    2.23422100    0.08526500
 H                  0.54673100    2.40922400    0.02451700
 H                  1.02986300   -0.44671000   -1.31403600
 C                  1.44087100   -1.57819000    0.47158900
 H                  0.59228100   -2.25532900    0.36728000
 H                  2.31882400   -2.08166600    0.05823300
 H                  1.62739800   -1.41602900    1.53940000

 1 2 1.0 3 1.0 7 1.0 12 1.0
 2
 3 4 2.0 5 1.0
 4
 5 6 1.0
 6
 7 8 1.0 15 1.0 16 1.0
 8 9 1.0 10 1.0 11 1.0
 9
 10
 11
 12 13 1.0 14 1.0
 13
 14
 15
 16 17 1.0 18 1.0 19 1.0
 17
 18
 19

