%chk=Ala-S-opt-freq-pb1-6-31g.chk
#p freq rb3lyp/6-31g scrf=check guess=tcheck geom=(connectivity,allcheck)
genchk

Ala-S-opt-freq-pb1-6-31g

0 1
 N                 -1.36237200   -1.10313600    0.48248200
 H                 -1.12512100   -1.69368300    1.27089900
 C                 -0.66837100    0.18022600    0.43832500
 H                 -0.72545100    0.63841700    1.43037200
 C                 -1.34244000    1.11187800   -0.58782900
 C                  0.82224500    0.06999400    0.12540200
 H                 -2.39539200    1.22846600   -0.31873700
 H                 -0.86224200    2.09596200   -0.60544400
 H                 -1.28271400    0.67930800   -1.59270400
 O                  1.73899000    0.64230200    0.71991900
 H                 -1.34973700   -1.60990500   -0.39556700
 O                  1.05939800   -0.76491900   -0.95442300
 H                  2.02154400   -0.80827000   -1.14555600

 1 2 1.0 3 1.0 11 1.0
 2
 3 4 1.0 5 1.0 6 1.0
 4
 5 7 1.0 8 1.0 9 1.0
 6 10 2.0 12 1.0
 7
 8
 9
 10
 11
 12 13 1.0
 13

