%chk=Val-S-opt-freq-cpcm-w-pa3-6-311++gdp.chk
#p opt freq rb3lyp/6-311++g(d,p) scrf=(cpcm,solvent=water) nosymm

Val-S-opt-freq-cpcm-w-pa3-6-311++gdp

0 1
 N                 -0.34962114    1.68971673    1.27606144
 H                  0.00396686    1.56358773    2.21896444
 C                 -0.24490514    0.49769773    0.50048444
 H                 -0.50602614   -0.84187427   -1.75371756
 C                  1.13032786   -0.15420527    0.52234444
 C                 -1.27955214    0.09371073   -0.24749456
 C                  1.10152286   -1.67377427    0.75906944
 O                 -2.52619614    0.65650273   -0.10501156
 H                  0.64457886   -2.21269027   -0.07383256
 H                  2.12052886   -2.05208027    0.88158344
 H                  0.53878086   -1.91721127    1.66406744
 H                 -1.30327414    2.02895173    1.32780944
 O                 -1.28034114   -0.91782527   -1.18481256
 H                 -1.06512195    0.73180739    0.96236868
 H                  1.63886386    0.28623373    1.38755944
 C                  1.97745186    0.21639573   -0.71105356
 H                  2.00365886    1.29876173   -0.85821956
 H                  3.00606286   -0.13660127   -0.59113456
 H                  1.58737786   -0.23785927   -1.62861056

