%chk=Ala-S-opt-freq-cpcm-w-pa1-6-311++gdp.chk
#p opt freq rb3lyp/6-311++g(d,p) scrf=(cpcm,solvent=water) nosymm

Ala-S-opt-freq-cpcm-w-pa1-6-311++gdp

0 1
 N                 -1.36378200   -1.20682600   -0.28529400
 H                 -1.38103200   -1.51101000    0.68474500
 C                 -0.70671800    0.09470800   -0.40123900
 H                 -0.76847200    0.41124400   -1.44621900
 C                 -1.29605900    1.22064000    0.47970100
 C                  0.75751500   -0.03908000   -0.09612300
 H                 -1.22644300    0.95827600    1.53843300
 H                 -0.77709200    2.16738200    0.31572000
 H                 -2.34890000    1.35309000    0.22355500
 O                  1.30495500   -0.98718700    0.55951800
 H                 -2.33080000   -1.12152000   -0.58350600
 O                  1.64664600    0.82046500   -0.41927100
 H                  2.23405206   -0.59897951    0.38141848

