%chk=Val-S-opt-freq-cpcm-w-pa2-6-311++gdp.chk
#p opt freq rb3lyp/6-311++g(d,p) scrf=(cpcm,solvent=water) nosymm

Val-S-opt-freq-cpcm-w-pa2-6-311++gdp

0 1
 N                 -0.06369692    1.92824205    0.41541101
 H                  0.01270208    2.00484105    1.42944401
 C                 -0.10238992    0.56111905   -0.04823599
 H                 -0.60152324   -0.53704539   -1.60792535
 C                  1.16093008   -0.21246995    0.39059001
 C                 -1.36353992   -0.12446595   -0.05042299
 C                  1.06555008   -1.74183595    0.32708201
 O                 -2.38986992    0.08804805    0.74640901
 H                  0.95150308   -2.10048295   -0.69975399
 H                  1.98363108   -2.17810995    0.72952001
 H                  0.22922508   -2.12923695    0.91518401
 H                 -0.87113392    2.46246205    0.11705601
 O                 -1.46586592   -0.90919895   -1.07800699
 H                 -3.20032492   -0.29049895    0.36900401
 H                  1.30515708    0.04652105    1.45363301
 C                  2.40165108    0.28042405   -0.36939699
 H                  2.47010208    1.36950105   -0.35024399
 H                  3.31440308   -0.12694895    0.07697601
 H                  2.36070108   -0.04131695   -1.41544899

