%chk=Ala-S-opt-freq-cpcm-w-tsa2-6-311++gdp.chk
#p opt=(calcfc,ts) freq rb3lyp/6-311++g(d,p) scrf=(cpcm,solvent=water) iop(1/11=1) nosymm

Ala-S-opt-freq-cpcm-w-tsa2-6-311++gdp

0 1
 N                 -1.16996144   -1.22096735   -0.32597496
 H                 -1.12279044   -1.57073035    0.62736804
 C                 -0.56719344    0.11529865   -0.40833596
 H                  0.35273087    1.04811998   -1.30927084
 C                 -1.14047944    1.15188165    0.58015004
 C                  0.93997056    0.02988965   -0.22132796
 H                 -1.00313744    0.81946165    1.61238204
 H                 -0.66076344    2.12687465    0.45894204
 H                 -2.21031344    1.27176265    0.39455804
 O                  1.29057856   -0.80450635    0.77568004
 H                 -2.15554544   -1.15601635   -0.56401696
 O                  1.75070156    0.66758065   -0.85589196
 H                  2.25660356   -0.78838335    0.86834504

