%chk=Phe-S-opt-freq-cpcm-w-pa2-6-311++gdp.chk
#p opt freq rb3lyp/6-311++g(d,p) scrf=(cpcm,solvent=water) nosymm

Phe-S-opt-freq-cpcm-w-pa2-6-311++gdp

0 1
 N                 -3.01625074   -1.31859622   -0.62350294
 H                 -3.17416774   -1.10458122   -1.60841994
 C                 -1.79989374   -0.74298622   -0.10001294
 H                 -1.10594726   -0.17131678    1.30594394
 C                 -0.59546474   -1.22840922   -0.93330394
 C                 -1.80936174    0.64136778    0.31287106
 H                 -0.59818474   -2.31968022   -0.86414594
 H                 -0.78919874   -0.98527222   -1.99002794
 C                  0.77381626   -0.70341422   -0.56654394
 O                 -2.55866374    1.61167078   -0.15751094
 C                  1.29864626    0.43322778   -1.19222994
 C                  1.55240226   -1.34904222    0.40217106
 H                  0.71575026    0.93908978   -1.95578594
 C                  2.56116826    0.92086578   -0.85237094
 C                  2.81568026   -0.86796622    0.74382606
 H                  1.16536926   -2.23780822    0.89077206
 H                  2.95051626    1.80228078   -1.35006394
 C                  3.32369226    0.27177178    0.11856106
 H                  3.40500126   -1.38464922    1.49347706
 H                  4.30684526    0.64608478    0.38113606
 H                 -3.83627274   -1.03121322   -0.10229094
 O                 -1.06987574    0.80656278    1.35933306
 H                 -2.56830174    2.36909678    0.45062606

