%chk=E:\YangJ\Amiano\Ala\ts1\s\ts1-p\Ala-S-ts1-6-311++gdp-cpcm.chk
# opt freq rb3lyp/6-311++g(d,p) scrf=(cpcm,solvent=water)

Ala-S-opt-freq-ts1-6-311++gdp cpcm

0 1
 N                 -1.26551490   -1.20896139   -0.25527758
 H                 -1.28276490   -1.51314539    0.71476142
 C                 -0.60845090    0.09257261   -0.37122258
 H                 -0.67020490    0.40910861   -1.41620258
 C                 -1.19779190    1.21850461    0.50971742
 C                  0.85578210   -0.04121539   -0.06610658
 H                 -1.12817590    0.95614061    1.56844942
 H                 -0.67882490    2.16524661    0.34573642
 H                 -2.25063290    1.35095461    0.25357142
 O                  1.40322210   -0.98932239    0.58953442
 H                 -2.23253290   -1.12365539   -0.55348958
 O                  1.74491310    0.81832961   -0.38925458
 H                  2.79670155    0.79547376   -0.06797797

