%chk=E:\YangJ\Amiano\Asp\ts1\s\Asp-S-ts1-p-6-31++gdp-cpcm.chk
# opt freq rb3lyp/6-311++g(d,p) scrf=(cpcm,solvent=water)

Asp-S-opt-freq-ts1-6-31++gdp

0 1
 N                 -1.55813006    1.80006442   -0.10029112
 H                 -1.76221206    1.89172742    0.89098388
 C                 -0.70975206    0.63370142   -0.36877012
 H                 -0.61413006    0.53148142   -1.45029112
 C                  0.66974694    0.84689542    0.25405688
 C                 -1.37208306   -0.62909158    0.13716288
 H                  1.07561894    1.79606042   -0.10396112
 H                  0.59987294    0.92809242    1.34318088
 C                  1.64686694   -0.25322558   -0.07615812
 O                 -2.15621306   -1.36848758   -0.54655112
 O                  1.38571294   -1.25028658   -0.71215412
 H                 -2.44274106    1.72935042   -0.59314012
 O                 -1.31400206   -1.06666358    1.33676388
 H                 -1.81484630   -1.96399853    1.72912216
 O                  2.86904394   -0.00127558    0.42420788
 H                  3.45785894   -0.73641658    0.18863688

