%chk=Ala-S-opt-freq-tsa3-6-31g.chk
#p opt=(calcfc,ts) freq rb3lyp/6-31g iop(1/11=1)

Ala-S-opt-freq-tsa3-6-31g

0 1
 N                  0.84227354    1.72560528    0.79917004
 H                  1.78266232    1.92362289    1.08811762
 C                  0.48964716    0.44838727    0.36857847
 H                 -1.41536004   -1.13083885   -1.41843633
 C                  1.53995138   -0.61876166    0.50285311
 C                 -0.73559008    0.20135417   -0.12896125
 H                  1.84761665   -0.73016291    1.55134823
 H                  1.15845835   -1.57913390    0.15493152
 H                  2.43767316   -0.36427521   -0.07814534
 O                 -1.65361715    1.25335369   -0.32662924
 H                  0.21055965    2.49039416    0.63530334
 O                 -1.20353989   -1.07757085   -0.46087954
 H                 -0.55566008    1.18924648    0.70916523

 1 2 1.0 3 1.0 11 1.0
 2
 3 5 1.0 6 2.0
 4 12 1.0
 5 7 1.0 8 1.0 9 1.0
 6 10 1.0 12 1.0
 7
 8
 9
 10
 11
 12
 13

