%chk=E:\YangJ\Amiano\Asp\ts1\s\Asp-S-ts1-6-31++gdp-cpcm.chk
# opt=(calcfc,ts) freq rb3lyp/6-311++g(d,p) scrf=(cpcm,solvent=water) iop(1/11=1)

Asp-S-opt-freq-ts1-6-31++gdp

0 1
 N
 H                  1              B1
 C                  1              B2    2              A1
 H                  3              B3    1              A2    2              D1
 C                  3              B4    1              A3    2              D2
 C                  3              B5    1              A4    5              D3
 H                  5              B6    3              A5    1              D4
 H                  5              B7    3              A6    1              D5
 C                  5              B8    3              A7    1              D6
 O                  6              B9    3              A8    1              D7
 O                  9             B10    5              A9    3              D8
 H                  1             B11    3             A10    6              D9
 O                  6             B12    3             A11    1             D10
 H                 13             B13    6             A12    3             D11
 O                  9             B14    5             A13    3             D12
 H                 15             B15    9             A14    5             D13

   B1             1.01578933
   B2             1.46734329
   B3             1.09092227
   B4             1.52712357
   B5             1.51291566
   B6             1.09359019
   B7             1.09368872
   B8             1.50947694
   B9             1.27290093
   B10            1.20573528
   B11            1.01461803
   B12            1.27721736
   B13            1.30380851
   B14            1.35165566
   B15            0.96943914
   A1           111.41019172
   A2           108.00337878
   A3           109.59025875
   A4           110.47230811
   A5           108.77702628
   A6           111.10190035
   A7           112.80102935
   A8           124.67152900
   A9           125.46981399
   A10          111.10102106
   A11          125.17900916
   A12           72.01390457
   A13          111.53321394
   A14          107.39522431
   D1           174.79757839
   D2           -65.71021659
   D3           123.85580865
   D4           -51.29120095
   D5            66.03695482
   D6          -171.82127700
   D7            81.46339293
   D8             4.80558828
   D9           -62.34647730
   D10          -92.64714038
   D11          175.29780372
   D12         -175.95795632
   D13         -179.71044650

