%chk=E:\YangJ\Amiano\Asp\ts1\s\Asp-S-freq-ts1-6-31++gdp-cpcm.chk
#p opt=(calcfc,ts) freq rb3lyp/6-311++g(d,p) scrf=(cpcm,solvent=water) iop(1/11=1)

Asp-S-opt-freq-ts1-6-31++gdp

0 1
 N                 -1.50197900    1.90858300   -0.11827200
 H                 -1.70400900    1.98928800    0.87394700
 C                 -0.64640500    0.74981600   -0.39818000
 H                 -0.54171300    0.66158800   -1.48047700
 C                  0.72621500    0.96152000    0.23680200
 C                 -1.30455400   -0.52328100    0.08656500
 H                  1.10792200    1.93996900   -0.06795500
 H                  0.65741600    0.97428600    1.32825000
 C                  1.72729800   -0.09291500   -0.16880900
 O                 -2.19850900   -1.16518800   -0.55302600
 O                  1.53263500   -0.96999400   -0.97294600
 H                 -2.38471700    1.83902100   -0.61363500
 O                 -1.12649400   -1.05239700    1.23531000
 H                 -2.03948800   -1.74289800    0.61115700
 O                  2.90517000    0.06770300    0.47445800
 H                  3.50070300   -0.63317200    0.16798300

