%chk=Ala-S-opt-freq-cpcm-w-tsa3-6-311++gdp.chk
#p opt=(calcfc,ts) freq rb3lyp/6-311++g(d,p) scrf=(cpcm,solvent=water)
nosymm 

Ala-S-opt-freq-cpcm-w-tsa3-6-311++gdp

0 1
 N                  1.08076201   -1.49507244   -0.12111206
 H                  2.05778201   -1.71949244   -0.20201106
 C                  0.61064601   -0.22427844   -0.23641506
 H                 -2.30175499    1.09826556   -0.11987806
 C                  1.56602801    0.92652756   -0.27633106
 C                 -0.77243699   -0.07601844   -0.36587606
 H                  1.03150801    1.85541356   -0.47600206
 H                  2.07860701    1.02873256    0.68981894
 H                  2.33892301    0.78843156   -1.04539506
 O                 -1.64735499   -1.24767844   -0.20325506
 H                  0.39579701   -2.22645044    0.02473694
 O                 -1.32958099    1.18810556   -0.07809006
 H                 -0.32093180   -1.08813801   -1.03385436

 1 2 1.0 3 1.5 11 1.0
 2
 3 5 1.0 6 1.5
 4 12 1.0
 5 7 1.0 8 1.0 9 1.0
 6 10 1.0 12 1.0
 7
 8
 9
 10
 11
 12
 13

