%chk=Ala-S-opt-freq-tsa3-6-31g.chk
#p opt=(calcfc,ts) freq rb3lyp/6-31g  iop(1/11=1)

Ala-S-opt-freq-tsa3-6-31g

0 1
 N                  1.42318229    1.18339230   -0.00375247
 H                  2.42041229    1.25931830   -0.08621647
 C                  0.80524129   -0.06502770   -0.02898647
 H                 -1.92229365   -1.55938202   -0.73535739
 C                  1.71326729   -1.26311170   -0.03666647
 C                 -0.69003365   -0.18377402   -0.03620839
 H                  2.35878429   -1.26602370    0.85198953
 H                  1.13200029   -2.18561970   -0.03964647
 H                  2.36849229   -1.25606170   -0.91919547
 O                 -1.49931465    0.96743298   -0.12751039
 H                  0.86083429    2.01117630   -0.10047447
 O                 -1.38028165   -1.39930502    0.06789761
 H                 -0.13827791    1.00682653    0.71274383

 1 2 1.0 3 1.0 11 1.0
 2
 3 5 1.0 6 1.0
 4 12 1.0
 5 7 1.0 8 1.0 9 1.0
 6 10 1.0 12 1.0
 7
 8
 9
 10
 11
 12
 13

 1 2 1.0 3 1.0 11 1.0
 2
 3 5 1.0 6 1.0
 4 12 1.0
 5 7 1.0 8 1.0 9 1.0
 6 10 1.0 12 1.0
 7
 8
 9
 10
 11
 12
 13

 1 2 1.0 3 1.0 11 1.0
 2
 3 5 1.0 6 1.0
 4 12 1.0
 5 7 1.0 8 1.0 9 1.0
 6 10 1.0 12 1.0
 7
 8
 9
 10
 11
 12
 13

 1 2 1.0 3 1.0 11 1.0
 2
 3 5 1.0 6 1.0
 4 12 1.0
 5 7 1.0 8 1.0 9 1.0
 6 10 1.0 12 1.0
 7
 8
 9
 10
 11
 12
 13

 1 2 1.0 3 1.0 11 1.0
 2
 3 5 1.0 6 2.0
 4 12 1.0
 5 7 1.0 8 1.0 9 1.0
 6 10 1.0 12 1.0
 7
 8
 9
 10
 11
 12
 13









