%chk=Phe-R-opt-freq-6-311gdp.chk
# opt=(calcfc,ts) freq rb3lyp/6-31g scrf=check guess=tcheck
geom=connectivity iop(1/11=1)

Phe-R-opt-freq-ts--6-31g

0 1
 C                  1.37087310   -0.12147101    0.44953003
 H                  1.03164908    0.51078504    1.27215910
 C                  2.77721021    0.37225503    0.10945601
 O                  3.24652325    1.43195711    0.44124303
 O                  3.46330926   -0.52015004   -0.65278305
 H                  3.85843922    0.48177141   -0.18887402
 C                  0.44619103    0.13073401   -0.77352106
 H                  0.69704805    1.10525209   -1.20285709
 H                  0.67550205   -0.62137405   -1.53494812
 C                 -1.02456608    0.10479201   -0.42533703
 C                 -1.74216013   -1.09527308   -0.38095803
 C                 -1.69683813    1.29503010   -0.12491801
 C                 -3.09418923   -1.10514109   -0.04419000
 H                 -1.23514609   -2.02682616   -0.60261804
 C                 -3.04880923    1.28907110    0.21375502
 H                 -1.15817509    2.23716817   -0.16122001
 C                 -3.75229129    0.08675901    0.25534902
 H                 -3.63420328   -2.04521916   -0.01573700
 H                 -3.55216827    2.22276617    0.43941203
 H                 -4.80487437    0.07903701    0.51545004
 N                  1.29523610   -1.51438312    0.87750107
 H                  1.77687713   -2.12199816    0.22253802
 H                  1.71750113   -1.64518113    1.79012113

 1 2 1.0 3 1.0 7 1.0 21 1.0
 2
 3 4 2.0 5 1.5
 4
 5
 6
 7 8 1.0 9 1.0 10 1.0
 8
 9
 10 11 1.5 12 1.5
 11 13 1.5 14 1.0
 12 15 1.5 16 1.0
 13 17 1.5 18 1.0
 14
 15 17 1.5 19 1.0
 16
 17 20 1.0
 18
 19
 20
 21 22 1.0 23 1.0
 22
 23

