%chk=Asp-S-opt-freq-p1-6-31g.chk
# opt freq rb3lyp/6-31g

Asp-S-opt-freq-p1-6-31g

0 1
 N                 -1.51122900    1.90892000   -0.10699100
 H                 -1.67725000    2.08678100    0.87675800
 C                 -0.64382900    0.76840200   -0.40207500
 H                 -0.53984600    0.68773700   -1.48664000
 C                  0.73401900    0.97755600    0.23344500
 C                 -1.28173300   -0.51338300    0.07698700
 H                  1.11963700    1.95636000   -0.07079700
 H                  0.65762100    0.98593600    1.32741600
 C                  1.70936900   -0.09465000   -0.16581100
 O                 -2.20497200   -1.18219900   -0.55643500
 O                  1.47577400   -1.02893100   -0.93910900
 H                 -2.34610000    1.97594900   -0.67496500
 O                 -1.11058900   -1.05536300    1.25640900
 H                 -2.10317828   -1.62270887    0.30103098
 O                  2.93535800    0.08462000    0.42871200
 H                  3.55532100   -0.62816500    0.15991900

