%chk=Ala-S-opt-freq-cpcm-w-tsb2-6-311++gdp.chk
#p opt=(calcfc,ts) freq rb3lyp/6-311++g(d,p) scrf=(cpcm,solvent=water) iop(1/11=1) nosymm

Ala-S-opt-freq-cpcm-w-tsb2-6-311++gdp

0 1
 N                 -1.05861809   -1.43422696   -0.01411446
 H                 -1.73194609   -1.67649496    0.70907354
 C                 -0.46872109   -0.13565196    0.22162754
 H                  0.22936496   -1.27394570    1.05459772
 C                 -1.31951509    1.09819104    0.29329654
 C                  0.86540491   -0.15427996    0.36395954
 H                 -2.05821109    1.02487804    1.10136954
 H                 -0.71669709    1.99079304    0.46987654
 H                 -1.87930009    1.24797404   -0.63842246
 O                  1.51899626   -1.11123500    1.07399736
 H                 -1.55900209   -1.46249596   -0.89943546
 O                  1.70480253    0.76549038   -0.17224332
 H                  2.61255022    0.51628011    0.04309394

