%chk=Ala-S-opt-freq-tsa3-6-31g.chk
#p opt=(calcfc,ts) freq rb3lyp/6-31g  iop(1/11=1)

Ala-S-opt-freq-tsa3-6-31g

0 1
 N                  0.77132823    1.72916099    0.73768024
 H                  1.71171701    1.92717860    1.02662782
 C                  0.41870185    0.45194298    0.30708867
 H                 -1.48630535   -1.12728314   -1.47992613
 C                  1.46900607   -0.61520595    0.44136331
 C                 -0.80653539    0.20490988   -0.19045105
 H                  1.77667134   -0.72660720    1.48985843
 H                  1.08751304   -1.57557819    0.09344172
 H                  2.36672785   -0.36071950   -0.13963514
 O                 -1.72456246    1.25690940   -0.38811904
 H                  0.13961434    2.49394987    0.57381354
 O                 -1.27448520   -1.07401514   -0.52236934
 H                 -0.36987507    1.13498335    0.24430179

 1 2 1.0 3 1.0 11 1.0
 2
 3 5 1.0 6 2.0
 4 12 1.0
 5 7 1.0 8 1.0 9 1.0
 6 10 1.0 12 1.0
 7
 8
 9
 10
 11
 12
 13

 1 2 1.0 3 1.0 11 1.0
 2
 3 5 1.0 6 2.0
 4 12 1.0
 5 7 1.0 8 1.0 9 1.0
 6 10 1.0 12 1.0
 7
 8
 9
 10
 11
 12
 13



