%chk=Asp-S-opt-freq-cpcm-w-tsa2-6-311++gdp.chk
#p opt=(calcfc,ts) freq rb3lyp/6-311++g(d,p) scrf=(cpcm,solvent=water) nosymm

Asp-S-opt-freq-cpcm-w-tsa2-6-311++gdp

0 1
 N                 -1.55852754    1.85465709   -0.15692523
 H                 -1.73341654    2.00813709    0.83274677
 C                 -0.70612554    0.67571709   -0.36585023
 H                  0.01062577    0.06266861    0.92029630
 C                  0.68666546    0.94918509    0.19417677
 C                 -1.33089254   -0.56526291    0.27659277
 H                  1.06204546    1.88615609   -0.22588823
 H                  0.65410146    1.08393609    1.27904277
 C                  1.68088846   -0.13977291   -0.12001723
 O                 -2.20234554   -1.16850191   -0.55347523
 O                  1.45567446   -1.12776291   -0.78329223
 H                 -2.45932854    1.73231409   -0.60897423
 O                 -1.13716254   -0.93751091    1.41245777
 H                 -2.62961754   -1.89947391   -0.07795423
 O                  2.88632446    0.11440209    0.42369477
 H                  3.49009246   -0.60740291    0.18524977

