%chk=E:\YangJ\Amiano\phe\ts1\s\Phe-S-ts1-6-311++gdp-cpcm.chk
#p opt=(calcfc,ts) freq rb3lyp/6-311++g(d,p) scrf=cpcm iop(1/11=1)

Phe-S-opt-freq-ts1-6-311++gdp

0 1
 N                 -2.87511500   -1.46144200   -0.20463700
 H                 -3.24670000   -1.06903400   -1.06474700
 C                 -1.63507400   -0.78572200    0.18968100
 H                 -1.33122500   -1.17919100    1.16138900
 C                 -0.53135100   -1.06729800   -0.84923000
 C                 -1.86508500    0.69885400    0.36361500
 H                 -0.50050200   -2.15284500   -0.97183600
 H                 -0.83946800   -0.63852500   -1.80722900
 C                  0.83241400   -0.54037300   -0.45689300
 O                 -2.10101300    1.51629500   -0.59105300
 C                  1.30646700    0.68012000   -0.94947700
 C                  1.64349800   -1.26495700    0.42497500
 H                  0.69221700    1.25339700   -1.63567500
 C                  2.55651800    1.16601100   -0.56780800
 C                  2.89216400   -0.78226300    0.80877000
 H                  1.29775100   -2.22039700    0.80804900
 H                  2.90841500    2.11309700   -0.96159300
 C                  3.35232400    0.43717100    0.31311400
 H                  3.50770100   -1.35959700    1.48969100
 H                  4.32518300    0.81351900    0.60854200
 H                 -3.58892300   -1.37813700    0.51190300
 O                 -1.92896400    1.31134100    1.47888900
 H                 -2.17008300    2.17746400    0.53079700

 1 2 1.0 3 1.0 21 1.0
 2
 3 4 1.0 5 1.0 6 1.0
 4
 5 7 1.0 8 1.0 9 1.0
 6 10 2.0 22 2.0
 7
 8
 9 11 1.5 12 1.5
 10
 11 13 1.0 14 1.5
 12 15 1.5 16 1.0
 13
 14 17 1.0 18 1.5
 15 18 1.5 19 1.0
 16
 17
 18 20 1.0
 19
 20
 21
 22
 23

