%chk=E:\YangJ\Amiano\phe\ts1\s\Phe-S-opt-freq-ts1-6-311++gdp.chk
# opt=(calcfc,ts) freq rb3lyp/6-311++g(d,p) iop(1/11=1)

Phe-S-opt-freq-ts1-6-311++gdp

0 1
 N                 -2.85741000   -1.48816400   -0.16146500
 H                 -3.23902100   -1.23051500   -1.06413500
 C                 -1.61758700   -0.80286600    0.20779100
 H                 -1.30548600   -1.16684600    1.18996800
 C                 -0.50863500   -1.09670400   -0.82950300
 C                 -1.87528900    0.67842200    0.33514700
 H                 -0.46981700   -2.18579700   -0.93321800
 H                 -0.82477200   -0.68261200   -1.79481700
 C                  0.85093400   -0.54473300   -0.44360100
 O                 -2.03220700    1.51196900   -0.66582400
 C                  1.26039500    0.73362100   -0.86163400
 C                  1.72045500   -1.30131300    0.36165600
 H                  0.59543900    1.32903100   -1.47964500
 C                  2.50763500    1.24215300   -0.48163900
 C                  2.96694900   -0.79457100    0.74256100
 H                  1.42079800   -2.29531500    0.68405800
 H                  2.81000700    2.23028300   -0.81437500
 C                  3.36389900    0.48035300    0.32140500
 H                  3.62770600   -1.39365600    1.36151400
 H                  4.33208000    0.87434400    0.61394800
 H                 -3.55532600   -1.56193000    0.56776700
 O                 -2.10845800    1.32552500    1.44497800
 H                 -2.27695500    2.23403000    0.45285900

