%chk=Phe-S-opt-freq-cpcm-w-tsa3-6-311++gdp.chk
#p opt=(calcfc,ts) freq rb3lyp/6-311++g(d,p) scrf=(cpcm,solvent=water) iop(1/11=1) nosymm

Phe-S-opt-freq-cpcm-w-tsa3-6-311++gdp

0 1
 N                 -2.97774234   -0.73550354   -1.13839846
 H                 -2.83969434   -0.70583754   -2.14498646
 C                 -1.80014734   -0.33659654   -0.43111646
 H                 -0.58287682   -0.01902511    1.78624814
 C                 -0.59045634   -1.19048654   -0.75571046
 C                 -1.86612434    0.62952646    0.49678454
 H                 -0.69600734   -2.16541454   -0.26476746
 H                 -0.62759434   -1.39965454   -1.83233246
 C                  0.77418666   -0.61159354   -0.43821546
 O                 -2.71237527    1.69505559    0.33718719
 C                  1.29192866    0.44991946   -1.19541046
 C                  1.55543266   -1.13197954    0.60139454
 H                  0.70194066    0.86115346   -2.00788646
 C                  2.54935366    0.97847046   -0.91660346
 C                  2.81748666   -0.60172954    0.88484554
 H                  1.17696766   -1.96162054    1.19002254
 H                  2.93405166    1.79736146   -1.51418346
 C                  3.31670066    0.45462646    0.12710754
 H                  3.40675166   -1.01942954    1.69335854
 H                  4.29587466    0.86646646    0.34323554
 H                 -3.76852134   -0.14350154   -0.91072246
 O                 -1.17987236    0.73608051    1.67736500
 H                 -2.26951132    1.09978967   -0.85701797

