%chk=Ala-S-opt-freq-p2-6-31g.chk
# opt=(calcfc,ts) freq rb3lyp/6-31g iop(1/11=1)

Ala-S-opt-freq-p2-6-31g

0 1
 N                  1.29209441    1.28974401    0.02015087
 H                  2.28932441    1.36567001   -0.06231313
 C                  0.67415341    0.04132401   -0.00508313
 H                 -1.89914859   -1.44078199   -0.71070913
 C                  1.58217941   -1.15675999   -0.01276313
 C                 -0.66688859   -0.06517399   -0.01156013
 H                  2.22769641   -1.15967199    0.87589287
 H                  1.00091241   -2.07926799   -0.01574313
 H                  2.23740441   -1.14970999   -0.89529213
 O                 -1.47616959    1.08603301   -0.10286213
 H                  0.72974641    2.11752801   -0.07657113
 O                 -1.35713659   -1.28070499    0.09254587
 H                 -0.08911452    1.25228471    0.44324293

