%chk=Ala-S-opt-freq-ts3-6-31g.chk
# opt=(calcfc,ts) freq rb3lyp/6-31g iop(1/11=1)

Ala-S-opt-freq-ts3-6-31g

0 1
 N                  1.28351900    1.30692900    0.02724600
 H                  2.28074900    1.38285500   -0.05521800
 C                  0.66557800    0.05850900    0.00201200
 H                 -1.90772400   -1.42359700   -0.70361400
 C                  1.57360400   -1.13957500   -0.00566800
 C                 -0.67546400   -0.04798900   -0.00446500
 H                  2.21912100   -1.14248700    0.88298800
 H                  0.99233700   -2.06208300   -0.00864800
 H                  2.22882900   -1.13252500   -0.88819700
 O                 -1.48474500    1.10321800   -0.09576700
 H                  0.72117100    2.13471300   -0.06947600
 O                 -1.36571200   -1.26352000    0.09964100
 H                 -0.30124972    0.83904007    0.77024208

