%chk=Phe-S-opt-freq-cpcm-w-tsa2-6-311++gdp.chk
#p opt=(calcfc,ts) freq rb3lyp/6-311++g(d,p) scrf=(cpcm,solvent=water) iop(1/11=1) nosymm

Phe-S-opt-freq-cpcm-w-tsa2-6-311++gdp

0 1
 N                 -2.93948374   -1.33047961   -0.40109293
 H                 -3.28470274   -0.83201561   -1.21646293
 C                 -1.66923374   -0.76001161    0.05559907
 H                 -1.82997813   -0.36725023    1.61903352
 C                 -0.57933574   -1.00356661   -1.01386493
 C                 -1.76820174    0.72258639    0.42036207
 H                 -0.56740874   -2.08141461   -1.19584393
 H                 -0.88845274   -0.52080061   -1.94500793
 C                  0.80113526   -0.52562661   -0.61745893
 O                 -2.21938574    1.47267139   -0.60541093
 C                  1.33473226    0.65579739   -1.14503393
 C                  1.57256326   -1.25538061    0.29722807
 H                  0.75646926    1.22985739   -1.86163393
 C                  2.60250526    1.10109239   -0.76709393
 C                  2.83855226   -0.81407161    0.67775207
 H                  1.18201226   -2.18007861    0.71059807
 H                  2.99941326    2.01738139   -1.19000693
 C                  3.35785626    0.36803439    0.14678707
 H                  3.42176426   -1.39467661    1.38396607
 H                  4.34389926    0.71064239    0.43971107
 H                 -3.65071374   -1.25488361    0.31997707
 O                 -1.49471374    1.19288739    1.50255007
 H                 -2.27793374    2.39612539   -0.31293793

