%chk=E:\YangJ\Amiano\Ala\opt-rs\s\Ala-S-opt-freq-6-311++gdp.chk
# opt freq b3lyp/6-311++g(d,p)

Ala-S-opt-freq-6-311++g(d,p)

0 1
 N                 -1.43350800   -1.08542400   -0.34418100
 H                 -1.08926200   -1.78444900    0.29928900
 C                 -0.66540400    0.14427000   -0.40628900
 H                 -0.64362500    0.52874200   -1.43542300
 C                 -1.19081500    1.28258500    0.51335900
 C                  0.76500700   -0.17963700   -0.02937500
 H                 -1.17441100    0.96294000    1.56130900
 H                 -0.59069600    2.19148700    0.40525400
 H                 -2.22613800    1.51638000    0.24141600
 O                  1.14397600   -1.19008300    0.56971300
 H                 -2.43638500   -0.99843200   -0.40290800
 O                  1.63068100    0.82607400   -0.39654900
 H                  2.54509100    0.61007100   -0.11114700

