%chk=Ala-S-opt-freq-tsa3-6-31g.chk
#p opt=(calcfc,ts) freq rb3lyp/6-31g iop(1/11=1)

Ala-S-opt-freq-tsa3-6-31g

0 1
 N                  1.20779187    1.16122009    0.04974201
 H                  2.20502187    1.23714609   -0.03272199
 C                  0.58985087   -0.08719991    0.02450801
 H                 -1.98345113   -1.56930591   -0.68111799
 C                  1.49787687   -1.28528391    0.01682801
 C                 -0.75119113   -0.19369791    0.01803101
 H                  2.14339387   -1.28819591    0.90548401
 H                  0.91660987   -2.20779191    0.01384801
 H                  2.15310187   -1.27823391   -0.86570099
 O                 -1.56047213    0.95750909   -0.07327099
 H                  0.64544387    1.98900409   -0.04697999
 O                 -1.44143913   -1.40922891    0.12213701
 H                 -0.18092974    1.08532575   -0.11054628

