%chk=Val-S-opt-freq-cpcm-w-tsa3-6-311++gdp.chk
#p opt=(calcfc,ts) freq rb3lyp/6-311++g(d,p) scrf=(cpcm,solvent=water) iop(1/11=1) nosymm

Val-S-opt-freq-cpcm-w-tsa3-6-311++gdp

0 1
 N                 -0.16126124    1.64995317    1.14687621
 H                  0.19232676    1.52382417    2.08977921
 C                 -0.05654524    0.45793417    0.37129921
 H                 -0.42794084   -0.02662361   -2.19216193
 C                  1.31868776   -0.19396883    0.39315921
 C                 -1.09119224    0.05394717   -0.37667979
 C                  1.28988276   -1.71353783    0.62988421
 O                 -2.38312291    0.13801694    0.08700645
 H                  0.83293876   -2.25245383   -0.20301779
 H                  2.30888876   -2.09184383    0.75239821
 H                  0.72714076   -1.95697483    1.53488221
 H                 -1.11491424    1.98918817    1.19862421
 O                 -1.03484559   -0.52031487   -1.62920480
 H                 -1.47935529    0.10371999    1.14376492
 H                  1.82722376    0.24647017    1.25837421
 C                  2.16581176    0.17663217   -0.84023879
 H                  2.19201876    1.25899817   -0.98740479
 H                  3.19442276   -0.17636483   -0.72031979
 H                  1.77573776   -0.27762283   -1.75779579

