%chk=Val-S-opt-freq-cpcm-w-tsa3-6-311++gdp.chk
#p freq rb3lyp/6-311++g(d,p) scrf=(cpcm,solvent=water) nosymm

Val-S-opt-freq-cpcm-w-tsa3-6-311++gdp

0 1
 N                 -0.50714124    1.77403066    1.18074544
 H                 -0.15355324    1.64790166    2.12364844
 C                 -0.40242524    0.58201166    0.40516844
 H                 -0.66354624   -0.75756034   -1.84903356
 C                  0.97280776   -0.06989134    0.42702844
 C                 -1.43707224    0.17802466   -0.34281056
 C                  0.94400276   -1.58946034    0.66375344
 O                 -2.68371624    0.74081666   -0.20032756
 H                  0.48705876   -2.12837634   -0.16914856
 H                  1.96300876   -1.96776634    0.78626744
 H                  0.38126076   -1.83289734    1.56875144
 H                 -1.46079424    2.11326566    1.23249344
 O                 -1.43786124   -0.83351134   -1.28012856
 H                 -1.89969255    1.18778323    0.65432849
 H                  1.48134376    0.37054766    1.29224344
 C                  1.81993176    0.30070966   -0.80636956
 H                  1.84613876    1.38307566   -0.95353556
 H                  2.84854276   -0.05228734   -0.68645056
 H                  1.42985776   -0.15354534   -1.72392656

