%chk=Ala-S-opt-freq-cpcm-w-pb1-6-311++gdp.chk
#p opt freq rb3lyp/6-311++g(d,p) scrf=(cpcm,solvent=water) guess=tcheck

Ala-S-opt-freq-cpcm-w-pb1-6-311++gdp

0 1
 N                  1.23496800   -1.15211300   -0.53717500
 H                  2.16293800   -1.19727700   -0.93664000
 C                  0.66585900    0.18956700   -0.42946100
 H                  0.73499200    0.67064200   -1.40971800
 C                  1.33532500    1.10311000    0.63003100
 C                 -0.81757700    0.06943300   -0.13853900
 H                  2.39694100    1.22417400    0.38711800
 H                  0.87378700    2.09748300    0.65570900
 H                  1.25423500    0.65271800    1.62494700
 O                 -1.72881000    0.66894500   -0.70967000
 H                  1.10813600   -1.73378900    0.28126500
 O                 -1.05371900   -0.78894500    0.92107600
 H                 -2.01720900   -0.86182400    1.09411300

