%chk=Ala-S-opt-freq-tsb1-6-31g.chk
#p opt=(calcfc,ts) freq rb3lyp/6-31g  iop(1/11=1)

Ala-S-opt-freq-tsb16-31g

0 1
 N                 -1.35243563   -1.25731403   -0.44978145
 H                 -1.12969063   -1.82965903    0.35898255
 C                 -0.59131763   -0.01323403   -0.41739745
 H                  0.17893323   -1.28651682   -0.57307450
 C                 -1.13523063    1.06886397    0.54363955
 C                  0.83780337   -0.33986503   -0.01797045
 H                 -1.14510963    0.69926697    1.57269155
 H                 -0.53457263    1.98105297    0.50050355
 H                 -2.15981363    1.32435497    0.26066655
 O                  1.17032437   -1.26957003    0.67331655
 H                 -2.34941863   -1.07423803   -0.45303445
 O                  1.71655737    0.57563197   -0.48815745
 H                  2.59270737    0.33294397   -0.15181345

 1 2 1.0 3 1.0 11 1.0
 2
 3 5 1.0 6 1.0
 4
 5 7 1.0 8 1.0 9 1.0
 6 10 2.0 12 1.0
 7
 8
 9
 10
 11
 12 13 1.0
 13

 1 2 1.0 3 1.0 11 1.0
 2
 3 5 1.0 6 1.0
 4
 5 7 1.0 8 1.0 9 1.0
 6 10 2.0 12 1.0
 7
 8
 9
 10
 11
 12 13 1.0
 13

 1 2 1.0 3 1.0 11 1.0
 2
 3 5 1.0 6 1.0
 4
 5 7 1.0 8 1.0 9 1.0
 6 10 2.0 12 1.0
 7
 8
 9
 10
 11
 12 13 1.0
 13





