%chk=Ala-S-opt-freq-tsa3-6-31g.chk
#p opt=(calcfc,ts) freq rb3lyp/6-31g iop(1/11=1)

Ala-S-opt-freq-tsa3-6-31g

0 1
 N                  1.08233341    1.27571096    0.13329807
 H                  2.07956341    1.35163696    0.05083407
 C                  0.46439241    0.02729096    0.10806407
 H                 -2.10890959   -1.45481504   -0.59756193
 C                  1.37241841   -1.17079304    0.10038407
 C                 -0.87664959   -0.07920704    0.10158707
 H                  2.01793541   -1.17370504    0.98904007
 H                  0.79115141   -2.09330104    0.09740407
 H                  2.02764341   -1.16374304   -0.78214493
 O                 -1.65340593    1.13581235   -0.02452065
 H                  0.51998541    2.10349496    0.03657607
 O                 -1.56689759   -1.29473804    0.20569307
 H                 -0.28975765    1.02965524    0.00359568

 1 2 1.0 3 1.0 11 1.0
 2
 3 5 1.0 6 2.0
 4 12 1.0
 5 7 1.0 8 1.0 9 1.0
 6 10 1.0 12 1.0
 7
 8
 9
 10
 11
 12
 13

